Route #1: 147 125 106 35 67 32 27 62 101 78 120
Route #2: 145 109 28 30
Route #3: 39 14 110 105 74
Route #4: 88 41 144 66 89 1 40 47
Route #5: 102 87 149 141 99 92 150 86 60 23 139
Route #6: 29 9
Route #7: 65 131 111 15 5
Route #8: 8 83
Route #9: 117 45 148 98 50 85 76 114 18 97 118 151 43 127 81 37
Route #10: 128 73 142 54 44 103 20 135 77 48
Route #11: 3 22 96 132 56
Route #12: 130 146 16 143
Route #13: 71 69 2 121 55 93 138 68 63 33
Route #14: 72 4 51 122 59 70 100 137 91 119 140 38
Route #15: 116 133 31 126 10
Route #16: 90 52 152 19 46 108 94 134 124
Route #17: 7 11
Route #18: 36 17 12
Route #19: 84 58 26 112 75 115 82 64 104 57 53
Route #20: 21
Route #21: 42 25 95
Route #22: 13 6
Route #23: 34 107 61 80 24 79 136 123 113 49 129
